TSPLIB/results5.tsp
NAME : results5
COMMENT : a comment by the user
TYPE : TSP
DIMENSION : 27
EDGE_WEIGHT_TYPE : EXPLICIT
EDGE_WEIGHT_FORMAT: FULL_MATRIX
EDGE_WEIGHT_SECTION
0 0 56400 72800 72800 89200 69899 56400 56400 69899 81241 72800 72800 81241 95187 89200 89200 95187 0 9999999999 9999999999 9999999999 9999999999 9999999999 9999999999 9999999999 9999999999
0 0 0 56400 56400 72800 65000 0 0 65000 69899 56400 56400 69899 81241 72800 72800 81241 0 9999999999 9999999999 9999999999 9999999999 9999999999 9999999999 9999999999 9999999999
56400 0 0 0 56400 72800 65000 0 0 65000 69899 56400 56400 69899 81241 72800 72800 81241 9999999999 0 9999999999 9999999999 9999999999 9999999999 9999999999 9999999999 9999999999
72800 56400 0 0 0 56400 69899 56400 56400 69899 65000 0 0 65000 69899 56400 56400 69899 9999999999 0 9999999999 9999999999 9999999999 9999999999 9999999999 9999999999 9999999999
72800 56400 56400 0 0 0 69899 56400 56400 69899 65000 0 0 65000 69899 56400 56400 69899 9999999999 9999999999 0 9999999999 9999999999 9999999999 9999999999 9999999999 9999999999
89200 72800 72800 56400 0 0 81241 72800 72800 81241 69899 56400 56400 69899 65000 0 0 65000 9999999999 9999999999 0 9999999999 9999999999 9999999999 9999999999 9999999999 9999999999
69899 65000 65000 69899 69899 81241 0 0 65000 90000 56400 69899 69899 92620 72800 81241 81241 99798 9999999999 9999999999 9999999999 0 9999999999 9999999999 9999999999 9999999999 9999999999
56400 0 0 56400 56400 72800 0 0 0 65000 69899 56400 56400 69899 81241 72800 72800 81241 9999999999 9999999999 9999999999 0 9999999999 9999999999 9999999999 9999999999 9999999999
56400 0 0 56400 56400 72800 65000 0 0 0 69899 56400 56400 69899 81241 72800 72800 81241 9999999999 9999999999 9999999999 9999999999 0 9999999999 9999999999 9999999999 9999999999
69899 65000 65000 69899 69899 81241 90000 65000 0 0 92620 69899 69899 56400 99798 81241 81241 72800 9999999999 9999999999 9999999999 9999999999 0 9999999999 9999999999 9999999999 9999999999
81241 69899 69899 65000 65000 69899 56400 69899 69899 92620 0 0 65000 90000 56400 69899 69899 92620 9999999999 9999999999 9999999999 9999999999 9999999999 0 9999999999 9999999999 9999999999
72800 56400 56400 0 0 56400 69899 56400 56400 69899 0 0 0 65000 69899 56400 56400 69899 9999999999 9999999999 9999999999 9999999999 9999999999 0 9999999999 9999999999 9999999999
72800 56400 56400 0 0 56400 69899 56400 56400 69899 65000 0 0 0 69899 56400 56400 69899 9999999999 9999999999 9999999999 9999999999 9999999999 9999999999 0 9999999999 9999999999
81241 69899 69899 65000 65000 69899 92620 69899 69899 56400 90000 65000 0 0 92620 69899 69899 56400 9999999999 9999999999 9999999999 9999999999 9999999999 9999999999 0 9999999999 9999999999
95187 81241 81241 69899 69899 65000 72800 81241 81241 99798 56400 69899 69899 92620 0 0 65000 90000 9999999999 9999999999 9999999999 9999999999 9999999999 9999999999 9999999999 0 9999999999
89200 72800 72800 56400 56400 0 81241 72800 72800 81241 69899 56400 56400 69899 0 0 0 65000 9999999999 9999999999 9999999999 9999999999 9999999999 9999999999 9999999999 0 9999999999
89200 72800 72800 56400 56400 0 81241 72800 72800 81241 69899 56400 56400 69899 65000 0 0 0 9999999999 9999999999 9999999999 9999999999 9999999999 9999999999 9999999999 9999999999 0
95187 81241 81241 69899 69899 65000 99798 81241 81241 72800 92620 69899 69899 56400 90000 65000 0 0 9999999999 9999999999 9999999999 9999999999 9999999999 9999999999 9999999999 9999999999 0
0 0 9999999999 9999999999 9999999999 9999999999 9999999999 9999999999 9999999999 9999999999 9999999999 9999999999 9999999999 9999999999 9999999999 9999999999 9999999999 9999999999 0 9999999999 9999999999 9999999999 9999999999 9999999999 9999999999 9999999999 9999999999
9999999999 9999999999 0 0 9999999999 9999999999 9999999999 9999999999 9999999999 9999999999 9999999999 9999999999 9999999999 9999999999 9999999999 9999999999 9999999999 9999999999 9999999999 0 9999999999 9999999999 9999999999 9999999999 9999999999 9999999999 9999999999
9999999999 9999999999 9999999999 9999999999 0 0 9999999999 9999999999 9999999999 9999999999 9999999999 9999999999 9999999999 9999999999 9999999999 9999999999 9999999999 9999999999 9999999999 9999999999 0 9999999999 9999999999 9999999999 9999999999 9999999999 9999999999
9999999999 9999999999 9999999999 9999999999 9999999999 9999999999 0 0 9999999999 9999999999 9999999999 9999999999 9999999999 9999999999 9999999999 9999999999 9999999999 9999999999 9999999999 9999999999 9999999999 0 9999999999 9999999999 9999999999 9999999999 9999999999
9999999999 9999999999 9999999999 9999999999 9999999999 9999999999 9999999999 9999999999 0 0 9999999999 9999999999 9999999999 9999999999 9999999999 9999999999 9999999999 9999999999 9999999999 9999999999 9999999999 9999999999 0 9999999999 9999999999 9999999999 9999999999
9999999999 9999999999 9999999999 9999999999 9999999999 9999999999 9999999999 9999999999 9999999999 9999999999 0 0 9999999999 9999999999 9999999999 9999999999 9999999999 9999999999 9999999999 9999999999 9999999999 9999999999 9999999999 0 9999999999 9999999999 9999999999
9999999999 9999999999 9999999999 9999999999 9999999999 9999999999 9999999999 9999999999 9999999999 9999999999 9999999999 9999999999 0 0 9999999999 9999999999 9999999999 9999999999 9999999999 9999999999 9999999999 9999999999 9999999999 9999999999 0 9999999999 9999999999
9999999999 9999999999 9999999999 9999999999 9999999999 9999999999 9999999999 9999999999 9999999999 9999999999 9999999999 9999999999 9999999999 9999999999 0 0 9999999999 9999999999 9999999999 9999999999 9999999999 9999999999 9999999999 9999999999 9999999999 0 9999999999
9999999999 9999999999 9999999999 9999999999 9999999999 9999999999 9999999999 9999999999 9999999999 9999999999 9999999999 9999999999 9999999999 9999999999 9999999999 9999999999 0 0 9999999999 9999999999 9999999999 9999999999 9999999999 9999999999 9999999999 9999999999 0
EOF
